100
32
14
13
1
24
8
4
1
15
3
18
5
9
9
24
9
17
1
3
1
17
19
4
3
2
1
4
4
19
1
17
1
18
1
6
2
1
3
1
2
3
1
1
4
1
18
1
5
5
2
2
3
17
2
3
2
5
3
4
8
18
1
19
10
1
1
4
3
2
3
1
3
5
17
4
17
2
1
1
1
1
17
3
2
3
5
2
1
1
2
4
4
1
1
2
3
2
2
2
1
2